(set-logic ALL)
(set-option :produce-models true)
(declare-sort BoundSet 0)
(declare-sort UnboundSet 0)
(set-option :finite-model-find true)
(declare-fun IsPlayerOnTeam (BoundSet BoundSet) Bool)
(declare-fun DidNotGrowPlayoffBeard (BoundSet BoundSet) Bool)
(declare-fun GetsInjured (BoundSet) Bool)
(assert (not (=> (exists ((a BoundSet)) (exists ((b BoundSet)) (exists ((d BoundSet)) (and (IsPlayerOnTeam b d) (DidNotGrowPlayoffBeard b a))))) (exists ((a BoundSet)) (exists ((x BoundSet)) (and (DidNotGrowPlayoffBeard x a) (GetsInjured x)))))))
(check-sat)
(get-model)